Route #1: 1 31 6 2 43 26 1
Route #2: 1 28 29 23 9 40 33 13 38 20 24 21 1
Route #3: 1 5 44 17 14 30 27 1
Route #4: 1 10 32 22 39 41 1
Route #5: 1 18 15 25 3 37 11 12 8 34 16 1
Route #6: 1 19 35 7 4 42 36 45 1
cost 793
